Route 1: 0 49 90 60 73 58 29 67 48 63 71 11 50 0
Route 2: 0 96 8 66 61 44 4 3 86 75 16 10 53 0
Route 3: 0 64 28 9 98 94 77 14 84 0
Route 4: 0 68 62 15 59 56 57 52 100 42 20 19 12 0
Route 5: 0 41 89 38 55 54 27 91 78 47 2 35 0
Route 6: 0 92 31 82 43 7 46 80 0
Route 7: 0 30 79 1 93 26 6 0
Route 8: 0 36 95 18 72 23 85 51 34 32 0
Route 9: 0 99 37 88 22 40 97 0
Route 10: 0 45 25 74 87 21 76 33 39 17 69 65 5 0
Route 11: 0 70 13 83 81 24 0
